TCS_Benchmarks/redos_fix/corpus1_output_distinct_1566_1565_12_0.txt
( *)([0-9A-Z.a-z]*)
( *)([(]?[ ,0-9]*[)]? *)([0-9A-Z.a-z]*)